qbf_easy_train/easy_5691_SAT.qdimacs
p cnf 26 68
a 17 2 13 0
e 1 3 4 5 6 7 8 9 10 11 12 14 15 16 18 19 20 21 22 23 24 25 26 0
-3 -1 0
-3 2 0
1 -2 3 0
5 -4 0
5 1 0
4 -1 -5 0
5 6 -7 0
-5 -6 -7 0
5 -6 7 0
-5 6 7 0
-7 -4 -8 0
7 4 -8 0
-7 4 8 0
7 -4 8 0
9 3 0
9 8 0
-3 -8 -9 0
10 7 0
10 3 0
-7 -3 -10 0
-9 -10 -11 0
9 10 -11 0
-9 10 11 0
9 -10 11 0
12 1 0
12 -1 0
-13 14 -15 0
13 -14 -15 0
-13 -14 15 0
13 14 15 0
17 15 0
17 -16 0
-15 16 -17 0
18 12 0
18 17 0
-12 -17 -18 0
-20 -19 0
-20 3 0
19 -3 20 0
18 -20 -21 0
-18 20 -21 0
18 20 21 0
-18 -20 21 0
22 -2 0
22 1 0
2 -1 -22 0
22 -4 -23 0
-22 4 -23 0
22 4 23 0
-22 -4 23 0
7 -23 -24 0
-7 23 -24 0
7 23 24 0
-7 -23 24 0
-21 24 -25 0
21 -24 -25 0
-21 -24 25 0
21 24 25 0
26 11 0
26 -25 0
-11 25 -26 0
-2 -12 1 -8 18 -13 5 25 0
-8 -17 13 4 -7 0
15 17 -19 2 23 -10 -26 -7 0
-11 -26 -8 3 0
3 -4 24 5 15 0
-6 -8 -17 -23 26 14 0
26 0
