sat_easy_train/easy_5691_SAT.dimacs
p cnf 104 331
4 2 0
4 -3 0
-2 3 -4 0
-1 4 -5 0
1 -4 -5 0
-1 -4 5 0
1 4 5 0
7 -5 0
7 6 0
5 -6 -7 0
-9 8 0
-9 -3 0
-8 3 9 0
-12 2 0
-12 -11 0
-2 11 12 0
-10 -12 -13 0
10 12 -13 0
-10 12 13 0
10 -12 13 0
-15 14 0
-15 -9 0
-14 9 15 0
-16 13 0
-16 -15 0
-13 15 16 0
-9 16 -17 0
9 -16 -17 0
-9 -16 17 0
9 16 17 0
14 19 -20 0
-14 -19 -20 0
14 -19 20 0
-14 19 20 0
-21 15 0
-21 20 0
-15 -20 21 0
-22 -18 0
-22 -21 0
18 21 22 0
-23 10 0
-23 22 0
-10 -22 23 0
-25 8 0
-25 -24 0
-8 24 25 0
-23 -25 -26 0
23 25 -26 0
-23 25 26 0
23 -25 26 0
27 -17 0
27 -26 0
17 26 -27 0
29 -28 0
29 -22 0
28 22 -29 0
30 -29 0
30 -8 0
29 8 -30 0
-32 13 0
-32 31 0
-13 -31 32 0
32 24 -33 0
-32 -24 -33 0
32 -24 33 0
-32 24 33 0
-6 -33 -34 0
6 33 -34 0
-6 33 34 0
6 -33 34 0
30 34 -35 0
-30 -34 -35 0
30 -34 35 0
-30 34 35 0
24 -36 0
-24 -36 0
-37 -3 0
-37 20 0
3 -20 37 0
38 -36 0
38 37 0
36 -37 -38 0
39 -35 0
39 38 0
35 -38 -39 0
40 -2 0
40 14 0
2 -14 -40 0
41 -40 0
41 10 0
40 -10 -41 0
-43 -20 0
-43 42 0
20 -42 43 0
44 -8 0
44 -11 0
8 11 -44 0
43 -44 -45 0
-43 44 -45 0
43 44 45 0
-43 -44 45 0
46 41 0
46 45 0
-41 -45 -46 0
47 -39 0
47 46 0
39 -46 -47 0
-48 27 0
-48 -47 0
-27 47 48 0
-49 7 0
-49 48 0
-7 -48 49 0
51 50 0
51 -8 0
-50 8 -51 0
52 -51 0
52 -24 0
51 24 -52 0
53 24 0
53 52 0
-24 -52 -53 0
54 -9 0
54 42 0
9 -42 -54 0
-55 18 0
-55 14 0
-18 -14 55 0
-56 10 0
-56 55 0
-10 -55 56 0
57 56 0
57 52 0
-56 -52 -57 0
-40 58 0
40 58 0
10 -59 0
-10 -59 0
60 -58 0
60 59 0
58 -59 -60 0
-57 60 -61 0
57 -60 -61 0
-57 -60 61 0
57 60 61 0
62 42 0
62 14 0
-42 -14 -62 0
63 -24 0
63 -62 0
24 62 -63 0
64 -63 0
64 -2 0
63 2 -64 0
65 61 0
65 -64 0
-61 64 -65 0
54 -65 -66 0
-54 65 -66 0
54 65 66 0
-54 -65 66 0
14 56 -67 0
-14 -56 -67 0
14 -56 67 0
-14 56 67 0
68 -66 0
68 -67 0
66 67 -68 0
-69 -53 0
-69 -68 0
53 68 69 0
70 19 0
70 -51 0
-19 51 -70 0
71 42 0
71 -58 0
-42 58 -71 0
72 70 0
72 -71 0
-70 71 -72 0
-73 20 0
-73 -14 0
-20 14 73 0
75 -73 0
75 -74 0
73 74 -75 0
72 75 -76 0
-72 -75 -76 0
72 -75 76 0
-72 75 76 0
10 63 -77 0
-10 -63 -77 0
10 -63 77 0
-10 63 77 0
-78 62 0
-78 -40 0
-62 40 78 0
-79 62 0
-79 2 0
-62 -2 79 0
-78 -79 -80 0
78 79 -80 0
-78 79 80 0
78 -79 80 0
3 80 -81 0
-3 -80 -81 0
3 -80 81 0
-3 80 81 0
82 16 0
82 -21 0
-16 21 -82 0
-83 32 0
-83 82 0
-32 -82 83 0
-81 -83 -84 0
81 83 -84 0
-81 83 84 0
81 -83 84 0
85 -77 0
85 -84 0
77 84 -85 0
86 76 0
86 -85 0
-76 85 -86 0
11 -33 -87 0
-11 33 -87 0
11 33 87 0
-11 -33 87 0
-88 -24 0
-88 -31 0
24 31 88 0
87 -88 -89 0
-87 88 -89 0
87 88 89 0
-87 -88 89 0
-80 4 -90 0
80 -4 -90 0
-80 -4 90 0
80 4 90 0
-28 -50 -91 0
28 50 -91 0
-28 50 91 0
28 -50 91 0
-79 -91 -92 0
79 91 -92 0
-79 91 92 0
79 -91 92 0
90 92 -93 0
-90 -92 -93 0
90 -92 93 0
-90 92 93 0
-89 -93 -94 0
89 93 -94 0
-89 93 94 0
89 -93 94 0
95 -86 0
95 -94 0
86 94 -95 0
-69 -95 -96 0
69 95 -96 0
-69 95 96 0
69 -95 96 0
-97 -63 0
-97 10 0
63 -10 97 0
-98 9 0
-98 33 0
-9 -33 98 0
99 -98 0
99 -62 0
98 62 -99 0
100 97 0
100 -99 0
-97 99 -100 0
-101 12 0
-101 -73 0
-12 73 101 0
-100 101 -102 0
100 -101 -102 0
-100 -101 102 0
100 101 102 0
-103 96 0
-103 -102 0
-96 102 103 0
104 49 0
104 -103 0
-49 103 -104 0
-53 -43 -85 0
-66 63 -97 0
38 33 0
-15 -14 100 0
9 -27 59 0
-64 102 58 0
91 69 -98 57 0
-96 64 0
95 17 -11 0
17 86 0
-39 66 4 -38 9 -8 0
70 -38 88 95 0
-68 -23 0
-5 82 0
-76 -91 -13 0
32 -56 -24 0
-68 3 80 11 -92 -46 0
-67 7 47 99 -20 0
45 -82 -28 68 0
-28 -26 0
-18 -88 -39 -81 -2 -3 0
-5 -14 -73 -40 0
-25 -100 -56 0
-73 71 -81 1 -32 0
-100 102 -46 12 -38 -18 0
-51 54 -26 0
-80 -57 -42 10 85 -12 0
91 -80 98 79 16 0
62 -92 -90 84 -18 0
68 -73 -46 17 24 0
2 71 0
-10 -51 73 45 -74 -58 0
65 -32 -49 -80 0
88 36 23 29 -53 0
27 -78 96 0
-62 -51 -15 -101 58 48 0
-78 19 -65 42 0
-71 -57 -64 -102 3 -79 0
-4 -48 -52 0
-14 71 -16 86 -24 99 0
-2 79 -102 90 41 -73 0
-43 -92 0
-15 41 0
104 0
